benchmarks/bfuzz0/21534333531071299921978111018212638271.smt2
(set-logic QF_FP)
(declare-const x0 (_ FloatingPoint 11 53))
(declare-const x1 (_ FloatingPoint 11 53))
(declare-const x2 (_ FloatingPoint 11 53))
(declare-const x3 (_ FloatingPoint 11 53))
(declare-const x4 (_ FloatingPoint 11 53))
(declare-const x5 (_ FloatingPoint 11 53))
(declare-const x6 (_ FloatingPoint 11 53))
(declare-const x7 (_ FloatingPoint 11 53))
(declare-const x8 (_ FloatingPoint 11 53))
(declare-const x9 (_ FloatingPoint 11 53))
(declare-const x10 (_ FloatingPoint 11 53))
(declare-const x11 (_ FloatingPoint 11 53))
(declare-const x12 (_ FloatingPoint 11 53))
(declare-const x13 (_ FloatingPoint 11 53))
(declare-const x14 (_ FloatingPoint 11 53))
(assert (fp.eq (fp.div RNE x7 x0) (fp.add RNE x6 x11)))
(assert (fp.eq (fp.neg x6) (fp.mul RNE x3 x3)))
(assert (fp.geq (fp.sub RNE x13 x11) (fp.sub RNE x9 x6)))
(assert (fp.leq (fp.div RNE x5 x5) (fp.sub RNE x11 x7)))
(check-sat)
