db/data/21534333531071299921978111018212638271.z3.out
sat
-------------------
112.836297871
